(assert (forall ((pkt_0_4_6_0  Int  )(state_group_0_state_0_5_7_0  Int  )(state_group_0_state_1_6_8_0  Int  )) (let ((_n0 true ))
(let ((_n1 state_group_0_state_1_6_8_0 ))
(let ((_n2 (<   _n1   (ite  _n0  1 0) ) ))
(let ((_n3 pkt_0_4_6_0 ))
(let ((_n4 false ))
(let ((_n5 (ite  _n2   (ite  _n4  1 0)   _n3  ) ))
(let ((_n6 (-  _n5 )))
(let ((_n7 (<   (ite  _n0  1 0)   _n6 ) ))
(let ((_n8 (ite  _n2   _n4   _n7  ) ))
(let ((_n9 (not  _n8 ) ))
(let ((_n10 (or   _n9   _n2 ) ))
(let ((_n11 998 ))
(let ((_n12 (ite  _n10   (ite  _n4  1 0)   _n3  ) ))
(let ((_n13 (-  _n12 )))
(let ((_n14 (=   _n13   _n11 ) ))
(let ((_n15 (ite  _n10   _n4   _n14  ) ))
(let ((_n16 (not  _n15 ) ))
(let ((_n17 (or   _n16   _n10 ) ))
(let ((_n19 (or   _n15   _n10 ) ))
(let ((_n21 state_group_0_state_0_5_7_0 ))
(let ((_n22 (+   _n21   (ite  _n0  1 0) ) ))
(let ((_n23 (ite (=  _n1  0)  _n22   _n21  ) ))
(let ((_n24 (ite  _n19   (ite  _n4  1 0)   _n3  ) ))
(let ((_n25 (+   _n24   _n24 ) ))
(let ((_n26 (ite  _n19   (ite  _n4  1 0)   _n25  ) ))
(let ((_n27 (+   _n21   _n26 ) ))
(let ((_n28 (ite  _n17   (ite  _n4  1 0)   _n3  ) ))
(let ((_n29 (+   _n21   _n28 ) ))
(let ((_n30 (ite (=  (ite  _n15  1 0)  1)  _n29   _n27  ) ))
(let ((_n31 (ite (=  (ite  _n8  1 0)  1)  _n30   _n21  ) ))
(let ((_n32 999 ))
(let ((_n33 (ite  _n2   _n21   (ite  _n4  1 0)  ) ))
(let ((_n34 (=   _n33   _n32 ) ))
(let ((_n35 (not  _n34 ) ))
(let ((_n36 (and   _n2   _n35 ) ))
(let ((_n37 (not  _n2 ) ))
(let ((_n38 (or   _n36   _n37 ) ))
(let ((_n39 (not  _n38 ) ))
(let ((_n40 (+   _n21   (ite  _n39  1 0) ) ))
(let ((_n41 (and   _n36   _n2 ) ))
(let ((_n42 (-  (ite  _n41  1 0) )))
(let ((_n43 2 ))
(let ((_n44 (ite  _n41   _n43   (ite  _n4  1 0)  ) ))
(let ((_n45 (+   _n44   _n42 ) ))
(let ((_n46 (ite  _n41   _n45   (ite  _n4  1 0)  ) ))
(let ((_n47 (+   _n21   _n46 ) ))
(let ((_n48 (ite (=  (ite  _n36  1 0)  1)  _n47   _n40  ) ))
(let ((_n49 (ite (=  (ite  _n2  1 0)  1)  _n48   _n31  ) ))
(let ((_n50 (=   _n49   _n23 ) ))
(let ((_n52 (ite (=  _n21  999)  (ite  _n0  1 0)   _n1  ) ))
(let ((_n53 (ite (=  _n1  0)  _n52   _n1  ) ))
(let ((_n54 (+   _n1   _n26 ) ))
(let ((_n55 (+   _n1   _n28 ) ))
(let ((_n56 (ite (=  (ite  _n15  1 0)  1)  _n55   _n54  ) ))
(let ((_n57 (ite (=  (ite  _n8  1 0)  1)  _n56   _n1  ) ))
(let ((_n58 (+   _n1   (ite  _n39  1 0) ) ))
(let ((_n59 (ite (=  (ite  _n36  1 0)  1)  _n1   _n58  ) ))
(let ((_n60 (ite (=  (ite  _n2  1 0)  1)  _n59   _n57  ) ))
(let ((_n61 (=   _n60   _n53 ) ))
(implies  (and (and (>= state_group_0_state_1_6_8_0 0) (< state_group_0_state_1_6_8_0 1024 ))  (and (and (>= state_group_0_state_0_5_7_0 0) (< state_group_0_state_0_5_7_0 1024 ))  (and (>= pkt_0_4_6_0 0) (< pkt_0_4_6_0 1024 )) ) )   (and  _n17  _n19  _n50  _n61 )  ))))))))))))))))))))))))))))))))))))))))))))))))))))))))))))))
(check-sat)
(get-model)
(exit)